<number of tasks>
11

<cycle time>
94

<task times>
1 4
2 38
3 45
4 12
5 10
6 8
7 12
8 10
9 2
10 10
11 34

<precedence relations>
1,4
2,4
2,5
3,11
4,6
5,7
6,8
7,9
8,10
9,10
10,11

<setup times forward>
1,2:4
1,3:2
1,4:1
1,5:1
1,7:1
1,9:2
2,1:4
2,3:6
2,4:3
2,5:3
3,1:2
3,2:6
3,4:3
3,5:3
3,6:1
3,7:1
3,8:3
3,9:4
3,11:4
4,3:3
4,6:4
4,7:2
4,9:1
5,1:1
5,3:3
5,6:4
5,7:2
5,8:6
6,3:1
6,5:4
6,7:2
6,8:2
6,9:5
7,1:1
7,3:1
7,4:2
7,6:2
7,8:4
7,9:3
8,3:3
8,5:6
8,7:4
8,9:7
8,10:3
9,1:2
9,3:4
9,4:1
9,6:5
9,8:7
9,10:4
10,11:4

<setup times backward>
1,1:11
1,2:7
1,3:13
1,5:10
1,7:12
1,9:9
2,1:15
2,2:11
2,3:17
3,1:9
3,2:5
3,3:11
3,4:8
3,5:8
3,6:12
3,7:10
3,8:14
3,9:7
3,10:11
4,1:12
4,2:8
4,3:14
4,4:11
4,5:11
4,7:13
4,9:10
5,1:12
5,2:8
5,3:14
5,4:11
5,5:11
5,6:15
5,8:17
6,1:8
6,2:4
6,3:10
6,4:7
6,5:7
6,6:11
6,7:9
6,9:6
7,1:10
7,2:6
7,3:12
7,4:9
7,5:9
7,6:13
7,7:11
7,8:15
8,1:6
8,2:2
8,3:8
8,4:5
8,5:5
8,6:9
8,7:7
8,8:11
8,9:4
9,1:13
9,2:9
9,3:15
9,4:12
9,5:12
9,6:16
9,7:14
9,8:18
9,9:11
10,1:9
10,2:5
10,3:11
10,4:8
10,5:8
10,6:12
10,7:10
10,8:14
10,9:7
10,10:11
11,1:5
11,2:1
11,3:7
11,4:4
11,5:4
11,6:8
11,7:6
11,8:10
11,9:3
11,10:7
11,11:11

<end>

<optimal SALBP-1 value>
2


<rand seed>
467321153

